(set-option :produce-models true)
(set-logic QF_UF)
(declare-fun p26() Bool)
(declare-fun p16() Bool)
(declare-fun p29() Bool)
(declare-fun p21() Bool)
(declare-fun p25() Bool)
(declare-fun p27() Bool)
(declare-fun p17() Bool)
(declare-fun p11() Bool)
(declare-fun p18() Bool)
(declare-fun p5() Bool)
(declare-fun p15() Bool)
(declare-fun p8() Bool)
(declare-fun p10() Bool)
(declare-fun p19() Bool)
(declare-fun p0() Bool)
(declare-fun p28() Bool)
(declare-fun p3() Bool)
(declare-fun p23() Bool)
(declare-fun p9() Bool)
(declare-fun p12() Bool)
(declare-fun p6() Bool)
(declare-fun p24() Bool)
(declare-fun p13() Bool)
(declare-fun p14() Bool)
(declare-fun p22() Bool)
(declare-fun p20() Bool)
(declare-fun p2() Bool)
(declare-fun p1() Bool)
(declare-fun p4() Bool)
(declare-fun p7() Bool)
(assert
(and (or p26 p16 p29) (or p29 (not p21) (not p25)) (or (not p27) p17 (not p11)) (or (not p27) (not p18) (not p5)) (or (not p15) (not p17) (not p8)) (or (not p10) (not p19) (not p21)) (or p19 (not p19) (not p0)) (or p10 (not p5) p28) (or p3 (not p5) p23) (or (not p9) p5 (not p17)) (or (not p27) (not p27) (not p12)) (or (not p25) p10 (not p27)) (or p6 p10 p0) (or p28 p0 (not p25)) (or p24 (not p13) p21) (or (not p23) p27 (not p15)) (or (not p10) p18 (not p8)) (or (not p15) (not p18) (not p15)) (or p8 p25 p19) (or p14 p16 p18) (or (not p3) (not p28) (not p25)) (or p22 p6 (not p20)) (or (not p8) p26 p13) (or (not p26) (not p26) p15) (or p24 (not p26) p2) (or (not p14) p3 p11) (or (not p10) (not p21) (not p0)) (or p24 (not p21) p10) (or p0 p23 p26) (or (not p16) p0 p9) (or p27 (not p1) p9) (or (not p22) (not p19) (not p0)) (or p14 p11 p10) (or (not p23) (not p26) p9) (or p22 p4 p25) (or (not p12) p22 (not p22)) (or p15 p18 p28) (or (not p9) p22 (not p9)) (or p7 (not p13) p27) (or (not p24) (not p27) p25) (or p8 p9 p5) (or (not p25) p13 (not p15)) (or p16 p26 (not p12)) (or p7 (not p15) (not p28)) (or p11 p21 p2) (or (not p7) p12 p23) (or (not p4) (not p5) p2) (or p22 p9 p11) (or (not p23) (not p8) (not p28)) (or (not p23) p24 p23) (or (not p19) p5 p27) (or p27 p14 p26) (or p1 p6 p16) (or p14 p5 p19) (or p16 p11 (not p1)) (or (not p13) (not p20) p2) (or p4 p16 p22) (or p24 p13 (not p22)) (or p18 (not p27) p5) (or p11 p8 (not p15)) (or (not p7) p23 (not p4)) (or (not p19) p26 p11) (or p11 p10 (not p1)) (or p23 (not p26) p28) (or (not p17) p4 p28) (or (not p8) p1 p5) (or p10 p14 (not p8)) (or (not p16) (not p12) (not p10)) (or (not p28) (not p0) (not p18)) (or p17 p17 (not p6)) (or p8 (not p3) p28) (or p14 (not p3) p22) (or (not p23) p12 p14) (or (not p9) p16 p21) (or p3 (not p10) (not p26)) (or (not p28) p16 (not p3)) (or p29 (not p7) p16) (or (not p26) (not p17) (not p3)) (or p23 p18 (not p21)) (or (not p2) p19 p29) (or p6 p20 (not p15)) (or (not p9) p9 p1) (or p7 p15 p22) (or p9 p25 p22) (or (not p19) (not p23) (not p12)) (or (not p0) p21 (not p7)) (or (not p5) p9 p11) (or p0 (not p23) (not p29)) (or (not p15) (not p21) p8) (or (not p13) (not p12) p25) (or (not p25) p4 (not p19)) (or p6 (not p11) (not p8)) (or p15 p21 p12) (or p9 (not p28) p26) (or p16 (not p9) p1) (or p10 (not p24) (not p14)) (or p6 p18 (not p25)) (or (not p7) p22 (not p14)) (or (not p15) p3 p6) (or (not p15) (not p9) (not p12)) (or (not p26) (not p23) p26) (or (not p9) p13 (not p6)) (or (not p28) (not p29) p10) (or (not p19) (not p1) (not p27)) (or (not p24) (not p4) (not p5)) (or (not p21) (not p14) (not p7)) (or p1 p27 (not p27)) (or p2 (not p18) p0) (or (not p15) p26 (not p25)) (or (not p7) (not p11) (not p24)) (or p7 (not p9) (not p11)) (or p18 p19 (not p0)) (or p6 (not p9) p10) (or p22 p26 (not p17)) (or p28 (not p28) (not p29)) (or (not p24) (not p7) p9) (or p27 p27 (not p29)) (or p26 (not p23) (not p18)) (or (not p28) (not p6) (not p9)) (or p24 p7 (not p16)) (or (not p28) (not p8) p6) (or p18 p4 (not p7)) (or (not p10) p14 p26) (or p0 (not p19) p0) (or (not p19) p23 (not p22)) (or p22 p8 (not p6)) (or (not p10) (not p10) p20) (or (not p12) p29 p24))
)
(check-sat)
(get-model)
